 vasp.6.4.3 19Mar24 (build Jul 11 2024 14:45:55) complex

 executed on             LinuxIFC date 2024.10.20  03:17:56

 INCAR:
   SYSTEM = CoO Bulk Cubic Fm3m
   GGA = PE
   ISTART = 0
   ICHARG = 2
   PREC = Accurate
   LASPH = .TRUE.
   ISMEAR = 0
   SIGMA = 0.03
   ENCUT = 600
   EDIFF = 1E-7
   NELM = 300
   LREAL = .FALSE.
   LMAXMIX = 4
   ISPIN = 2
   MAGMOM = 3*5 3*-5 6*0.0
   ALGO = Normal
   NELMIN = 5
   ISIF = 2
   NSW = 0
   IBRION = -1
   EDIFFG = -0.001
   LDAU = .TRUE.
   LDAUTYPE = 2
   LDAUL = 2 -1
   LDAUU = 3.0 0
   LDAUJ = 0 0
   LDAUPRINT = 1
   LORBIT = 11
   IVDW = 12
   NCORE = 8
   KPAR = 4
   LVTOT = .TRUE.
   WRT_POTENTIAL = total
   LVHAR = .TRUE.

 POTCAR:    PAW_PBE Co 02Aug2007
 POTCAR:    PAW_PBE O 08Apr2002
 POTCAR:    PAW_PBE Co 02Aug2007
   VRHFIN =Co: d8 s1

   TITEL  = PAW_PBE Co 02Aug2007
   POMASS =   58.933; ZVAL   =    9.000    mass and valenz
   ENMAX  =  267.968; ENMIN  =  200.976 eV

 POTCAR:    PAW_PBE O 08Apr2002
   VRHFIN =O: s2p4

   TITEL  = PAW_PBE O 08Apr2002
   POMASS =   16.000; ZVAL   =    6.000    mass and valenz
   ENMAX  =  400.000; ENMIN  =  300.000 eV

  PAW_PBE Co 02Aug2007                  :
  PAW_PBE O 08Apr2002                   :

 POSCAR: Generated by VASPKIT code
  positions in direct lattice
  velocities in cartesian coordinates
 IVDW         = 12
 VDW_S6       =    1.0000
 VDW_S8       =    0.7875
 VDW_A1       =    0.4289
 VDW_A2       =    4.4407
 VDW_RADIUS   =   50.2022 A
 VDW_CNRADIUS =   21.1671 A

 exchange-correlation table for PE
   RHO(1)=    0.500       N(1)  =     2000
   RHO(2)=  100.500       N(2)  =     4000

 ion  position               nearest neighbor table
   1  0.999  0.999  0.500-  10 2.13   8 2.13   7 2.13   8 2.13  10 2.13   5 3.01   4 3.01   5 3.01
                             3 3.01   3 3.01   5 3.01   4 3.01   5 3.01
   2  0.999  0.999  0.673-   7 2.08  11 2.13   9 2.13   9 2.13  11 2.13   4 2.98   3 2.98   3 2.98
                             4 2.98   6 3.01   6 3.01   6 3.01   6 3.01
   3  0.499  0.999  0.588-  12 2.13   7 2.13   8 2.13   7 2.13  12 2.13   9 2.13   6 2.98   2 2.98
                             2 2.98   6 2.98   4 3.01   5 3.01   4 3.01   1 3.01   1 3.01   4 3.01
   4  0.999  0.499  0.588-   7 2.13  12 2.13  10 2.13  12 2.13   7 2.13  11 2.13   2 2.98   6 2.98
                             6 2.98   2 2.98   3 3.01   1 3.01   3 3.01   5 3.01   5 3.01   3 3.01
   5  0.499  0.499  0.500-   8 2.13  10 2.13  12 2.13  10 2.13   8 2.13   1 3.01   3 3.01   1 3.01
                             4 3.01   4 3.01   1 3.01   3 3.01   1 3.01
   6  0.499  0.499  0.673-  12 2.08   9 2.13  11 2.13  11 2.13   9 2.13   3 2.98   4 2.98   4 2.98
                             3 2.98   2 3.01   2 3.01   2 3.01   2 3.01
   7  0.999  0.999  0.588-   2 2.08   4 2.13   3 2.13   1 2.13   3 2.13   4 2.13
   8  0.499  0.999  0.500-   5 2.13   1 2.13   3 2.13   1 2.13   5 2.13
   9  0.499  0.999  0.675-   6 2.13   2 2.13   2 2.13   6 2.13   3 2.13
  10  0.999  0.499  0.500-   1 2.13   5 2.13   4 2.13   5 2.13   1 2.13
  11  0.999  0.499  0.675-   2 2.13   6 2.13   6 2.13   2 2.13   4 2.13
  12  0.499  0.499  0.588-   6 2.08   3 2.13   4 2.13   5 2.13   4 2.13   3 2.13

  LATTYP: Found a simple tetragonal cell.
 ALAT       =     4.2600000000
 C/A-ratio  =     5.6971833246

  Lattice vectors:

 A1 = (   4.2600000000,   0.0000000000,   0.0000000000)
 A2 = (   0.0000000000,   4.2600000000,   0.0000000000)
 A3 = (   0.0000000000,   0.0000000000,  24.2700009629)

Analysis of symmetry for initial positions (statically):
 Subroutine PRICEL returns following result:

[...]

   2 primitive cells build up your supercell.

 Routine SETGRP: Setting up the symmetry group for a
 simple tetragonal supercell.

 Subroutine GETGRP returns: Found  8 space group operations
 (whereof  2 operations were pure point group operations)
 out of a pool of 16 trial point group operations.

The static configuration has the point symmetry C_1h.
 The point group associated with its full space group is C_4v.

Analysis of symmetry for dynamics (positions and initial velocities):
 Subroutine PRICEL returns following result:

[...]

The dynamic configuration has the point symmetry C_1h.
 The point group associated with its full space group is C_4v.

Analysis of constrained symmetry for selective dynamics:
 Subroutine PRICEL returns following result:

[...]

The constrained configuration has the point symmetry C_1h.
 The point group associated with its full space group is C_4v.

Analysis of structural, dynamic, and magnetic symmetry:
 Subroutine PRICEL returns following result:

  LATTYP: Found a simple tetragonal cell.
 ALAT       =     3.0122768553
 C/A-ratio  =     8.0570286628

  Lattice vectors:

 A1 = (   2.1299990371,  -2.1300037452,   0.0000000000)
 A2 = (   2.1299990371,   2.1299962548,   0.0000000000)
 A3 = (   0.0000000000,   0.0000000000,  24.2700009629)

   2 primitive cells build up your supercell.

 Routine SETGRP: Setting up the symmetry group for a
 simple tetragonal supercell.

 Subroutine GETGRP returns: Found  4 space group operations
 (whereof  1 operations were pure point group operations)
 out of a pool of 16 trial point group operations.

The overall configuration has the point symmetry C_1 .
 The point group associated with its full space group is C_2v.

 Subroutine INISYM returns: Found  4 space group operations
 (whereof  1 operations are pure point group operations),
 and found     2 'primitive' translations

                                     Primitive cell

  volume of cell :     220.2210

  direct lattice vectors                    reciprocal lattice vectors
     2.129999037 -2.130003745  0.000000000     0.234741477 -0.234741784  0.000000000
     2.129999037  2.129996255  0.000000000     0.234742303  0.234741784 -0.000000000
     0.000000000  0.000000000 24.270000963     0.000000000  0.000000000  0.041203130

  length of vectors
     3.012276855  3.012271559 24.270000963     0.331974798  0.331975382  0.041203130

  position of ions in fractional coordinates (direct lattice)
     0.999998368  0.998878807  0.499794004
     0.999998368  0.998878807  0.673392771
     0.499999247  0.498877928  0.587556631
     0.999997747  0.998878941  0.587556674
     0.499999381  0.498877307  0.499793961
     0.499999381  0.498877307  0.675408893

  ion indices of the primitive-cell ions
   primitive index   ion index
                 1           1
                 2           2
                 3           4
                 4           7
                 5          10
                 6          11

 KPOINTS: KPOINTS

Automatic generation of k-mesh.
 Grid dimensions read from file:
 generate k-points for:    6    6    1

 Generating k-lattice:

  Cartesian coordinates                     Fractional coordinates (reciprocal lattice)
     0.039123631 -0.000000000 -0.000000000     0.166666667  0.000000000 -0.000000000
     0.000000000  0.039123631 -0.000000000     0.000000000  0.166666667 -0.000000000
     0.000000000  0.000000000  0.041203130     0.000000000  0.000000000  1.000000000

  Length of vectors
     0.039123631  0.039123631  0.041203130

  Shift w.r.t. Gamma in fractional coordinates (k-lattice)
     0.000000000  0.000000000  0.000000000

 Subroutine IBZKPT returns following result:

 Found     16 irreducible k-points:

 Following reciprocal coordinates:
            Coordinates               Weight
  0.000000  0.000000  0.000000      1.000000
  0.166667 -0.000000 -0.000000      2.000000
  0.000000  0.166667  0.000000      2.000000
  0.333333 -0.000000 -0.000000      2.000000
  0.000000  0.333333  0.000000      2.000000
  0.500000 -0.000000  0.000000      1.000000
  0.000000  0.500000  0.000000      1.000000
  0.166667  0.166667  0.000000      4.000000
  0.333333  0.166667  0.000000      4.000000
 -0.166667  0.333333  0.000000      4.000000
  0.500000  0.166667 -0.000000      2.000000
 -0.166667  0.500000  0.000000      2.000000
  0.333333  0.333333  0.000000      4.000000
  0.500000  0.333333 -0.000000      2.000000
 -0.333333  0.500000  0.000000      2.000000
  0.500000  0.500000  0.000000      1.000000

 Following cartesian coordinates:
            Coordinates               Weight
  0.000000  0.000000  0.000000      1.000000
  0.039124 -0.000000 -0.000000      2.000000
  0.000000  0.039124 -0.000000      2.000000
  0.078247 -0.000000 -0.000000      2.000000
  0.000000  0.078247 -0.000000      2.000000
  0.117371 -0.000000 -0.000000      1.000000
  0.000000  0.117371 -0.000000      1.000000
  0.039124  0.039124 -0.000000      4.000000
  0.078247  0.039124 -0.000000      4.000000
 -0.039124  0.078247 -0.000000      4.000000
  0.117371  0.039124 -0.000000      2.000000
 -0.039124  0.117371 -0.000000      2.000000
  0.078247  0.078247 -0.000000      4.000000
  0.117371  0.078247 -0.000000      2.000000
 -0.078247  0.117371 -0.000000      2.000000
  0.117371  0.117371 -0.000000      1.000000

 SYSTEM =  CoO Bulk Cubic Fm3m
 POSCAR =  Generated by VASPKIT code

 Startparameter for this run:
   NWRITE =      2    write-flag & timer
   PREC   = accura    normal or accurate (medium, high low for compatibility)
   ISTART =      0    job   : 0-new  1-cont  2-samecut
   ICHARG =      2    charge: 1-file 2-atom 10-const
   ISPIN  =      2    spin polarized calculation?
   LNONCOLLINEAR =      F non collinear calculations
   LSORBIT =      F    spin-orbit coupling
   INIWAV =      1    electr: 0-lowe 1-rand  2-diag
   LASPH  =      T    aspherical Exc in radial PAW
 Electronic Relaxation 1
   ENCUT  =  600.0 eV  44.10 Ry    6.64 a.u.   8.51  8.51 48.47*2*pi/ulx,y,z
   ENINI  =  600.0     initial cutoff
   ENAUG  =  605.4 eV  augmentation charge cutoff
   NELM   =    300;   NELMIN=  5; NELMDL= -5     # of ELM steps
   EDIFF  = 0.1E-06   stopping-criterion for ELM
   LREAL  =      F    real-space projection
   NLSPLINE    = F    spline interpolate recip. space projectors
   LCOMPAT=      F    compatible to vasp.4.4
   GGA_COMPAT  = T    GGA compatible to vasp.4.4-vasp.4.6
   LMAXPAW     = -100 max onsite density
   LMAXMIX     =    4 max onsite mixed and CHGCAR
   VOSKOWN=      0    Vosko Wilk Nusair interpolation
   ROPT   =    0.00000   0.00000
 Ionic relaxation
   EDIFFG = -.1E-02   stopping-criterion for IOM
   NSW    =      0    number of steps for IOM
   NBLOCK =      1;   KBLOCK =      1    inner block; outer block
   IBRION =     -1    ionic relax: 0-MD 1-quasi-New 2-CG
   NFREE  =      0    steps in history (QN), initial steepest desc. (CG)
   ISIF   =      2    stress and relaxation
   IWAVPR =     10    prediction:  0-non 1-charg 2-wave 3-comb
   ISYM   =      2    0-nonsym 1-usesym 2-fastsym
   LCORR  =      T    Harris-Foulkes like correction to forces

   POTIM  = 0.5000    time-step for ionic-motion
   TEIN   =    0.0    initial temperature
   TEBEG  =    0.0;   TEEND  =   0.0 temperature during run
   SMASS  =  -3.00    Nose mass-parameter (am)
   estimated Nose-frequenzy (Omega)   =  0.10E-29 period in steps = 0.13E+47 mass=  -0.415E-27a.u.
   SCALEE = 1.0000    scale energy and forces
   NPACO  =    256;   APACO  = 10.0  distance and # of slots for P.C.
   PSTRESS=    0.0 pullay stress

  Mass of Ions in am
[...]
  o =  0.9806  v =  0.0000  0.0000  0.0000  0.0000  0.0000  0.0000 -0.0000  0.9970  0.0000  0.0779      0.0000  0.0000  0.0000  0.0000  0.0000  0.0000  0.0000  0.0000  0.0000  0.0000
  o =  1.0090  v =  0.0000  0.0000  0.0000  0.0000  0.0000  0.0000  0.0000 -0.0779 -0.0000  0.9970      0.0000  0.0000  0.0000  0.0000  0.0000  0.0000  0.0000  0.0000  0.0000  0.0000

 eigenvalue-minimisations  :  4368
 total energy-change (2. order) :-0.4930280E-07  (-0.2082529E-10)
 number of electron      90.0000007 magnetization      -0.0000000
 augmentation part       35.1152340 magnetization      -0.0000000

 Free energy of the ion-electron system (eV)
  alpha Z        PSCENC =        86.09644943
  Ewald energy   TEWEN  =     39626.73965434
  -Hartree energ DENC   =    -46678.97605097
  -exchange      EXHF   =         0.00000000
  -V(xc)+E(xc)   XCENC  =       271.66386341
  PAW double counting   =      7824.34996159    -8099.35040456
  entropy T*S    EENTRO =        -0.00000014
  eigenvalues    EBANDS =      -574.86139349
  atomic energy  EATOM  =      7474.36329711
  Solvation  Ediel_sol  =         0.00000000
  free energy    TOTEN  =       -69.97462329 eV

  energy without entropy =      -69.97462314  energy(sigma->0) =      -69.97462322

 average (electrostatic) potential at core
  the test charge radii are     1.0452  0.7215
  (the norm of the test charge is              1.0000)
       1 -90.0280       2 -89.8188       3 -89.4431       4 -89.4431       5 -90.0280
       6 -89.8188       7 -76.1730       8 -75.9303       9 -75.7606      10 -75.9303
      11 -75.7606      12 -76.1730

 E-fermi :  -0.5386     XC(G=0):  -3.8791     alpha+bet : -3.6404

 val. band max:       -0.6277365222   @ k =   0.5000   0.5000   0.0000
 cond. band min:      -0.4454402614   @ k =   0.0000   0.5000   0.0000
 fundamental gap:      0.1822962608
 Fermi energy:        -0.5386172983

[...]

 k-point     1 :       0.0000    0.0000    0.0000
  band No.  band energies     occupation
      1     -19.9475      1.00000
      2     -19.0985      1.00000
      3     -19.0092      1.00000
      4     -18.7889      1.00000
      5     -18.4655      1.00000
      6     -18.2914      1.00000
      7      -7.3854      1.00000
      8      -7.0266      1.00000
      9      -6.6593      1.00000
     10      -6.5904      1.00000
     11      -6.3701      1.00000
     12      -6.0322      1.00000
     13      -5.9186      1.00000
     14      -5.9115      1.00000
     15      -5.8473      1.00000
     16      -5.7872      1.00000
     17      -4.9540      1.00000
     18      -4.9379      1.00000
     19      -4.9181      1.00000
     20      -4.7960      1.00000
     21      -4.7303      1.00000
     22      -4.6772      1.00000
     23      -4.5981      1.00000
     24      -4.5767      1.00000
     25      -4.5616      1.00000
     26      -4.4787      1.00000
     27      -4.4454      1.00000
     28      -4.3717      1.00000
     29      -4.1691      1.00000
     30      -4.1481      1.00000
     31      -4.1049      1.00000
     32      -3.6013      1.00000
     33      -3.4918      1.00000
     34      -3.4158      1.00000
     35      -3.2449      1.00000
     36      -3.2397      1.00000
     37      -3.1188      1.00000
     38      -3.0463      1.00000
     39      -2.9841      1.00000
     40      -2.6337      1.00000
     41      -2.6134      1.00000
     42      -2.4427      1.00000
     43      -2.2756      1.00000
     44      -2.2080      1.00000
     45      -1.8916      1.00000
     46      -0.4335      0.00000
     47      -0.1476      0.00000
     48       0.2627      0.00000
     49       0.4765      0.00000
     50       0.5636      0.00000
     51       0.9671      0.00000
     52       1.1200      0.00000
     53       1.1919      0.00000
     54       1.6249      0.00000
     55       1.8449      0.00000
     56       2.1330      0.00000
     57       2.8615      0.00000
     58       3.2721      0.00000
     59       3.4202      0.00000
     60       4.4474      0.00000
[...]
     64       5.6893      0.00000
     65       6.3884      0.00000
     66       6.9525      0.00000
     67       7.4738      0.00000
     68       8.4044      0.00000
     69       9.0237      0.00000
     70       9.0407      0.00000
     71       9.3858      0.00000
     72       9.3915      0.00000
     73       9.4690      0.00000
     74       9.7628      0.00000
     75       9.8186      0.00000
     76       9.9090      0.00000
     77      10.3573      0.00000
     78      10.3754      0.00000

[...]

 k-point    16 :       0.5000    0.5000    0.0000
  band No.  band energies     occupation
      1     -19.2749      1.00000
      2     -18.9744      1.00000
      3     -18.7041      1.00000
      4     -18.5186      1.00000
      5     -18.4994      1.00000
      6     -18.3184      1.00000
      7      -8.2327      1.00000
      8      -8.1375      1.00000
      9      -7.7162      1.00000
     10      -7.6953      1.00000
     11      -7.6864      1.00000
     12      -7.4780      1.00000
     13      -7.0738      1.00000
     14      -7.0083      1.00000
     15      -7.0008      1.00000
     16      -6.8461      1.00000
     17      -6.8389      1.00000
     18      -6.6458      1.00000
     19      -5.3806      1.00000
     20      -5.3679      1.00000
     21      -5.2048      1.00000
     22      -5.1424      1.00000
     23      -5.1124      1.00000
     24      -5.0045      1.00000
     25      -4.4772      1.00000
     26      -4.4446      1.00000
     27      -4.2422      1.00000
     28      -4.2262      1.00000
     29      -3.3745      1.00000
     30      -3.2461      1.00000
     31      -3.2381      1.00000
     32      -3.2027      1.00000
     33      -3.0512      1.00000
     34      -3.0153      1.00000
     35      -2.9656      1.00000
     36      -2.8943      1.00000
     37      -2.0134      1.00000
     38      -1.9928      1.00000
     39      -1.8638      1.00000
     40      -1.8252      1.00000
     41      -1.6202      1.00000
     42      -1.1931      1.00000
     43      -0.8401      1.00000
     44      -0.8009      1.00000
     45      -0.6277      0.99999
     46       0.3049      0.00000
     47       0.4758      0.00000
     48       0.6959      0.00000
     49       0.7962      0.00000
     50       1.2809      0.00000
     51       1.9512      0.00000
     52       3.2376      0.00000
     53       3.4312      0.00000
     54       3.6683      0.00000
     55       3.7825      0.00000
     56       4.2948      0.00000
     57       4.5626      0.00000
     58       4.8592      0.00000
     59       5.0344      0.00000
     60       5.2706      0.00000
[...]
     64       6.1413      0.00000
     65       6.8991      0.00000
     66       6.9941      0.00000
     67       7.0826      0.00000
     68       7.1207      0.00000
     69       7.1473      0.00000
     70       7.1787      0.00000
     71       7.4001      0.00000
     72       7.5052      0.00000
     73       7.5573      0.00000
     74       7.6482      0.00000
     75       7.9188      0.00000
     76       8.0651      0.00000
     77       8.1075      0.00000
     78       8.1724      0.00000
 Fermi energy:        -0.5386172983

 spin component 2

[...]

 k-point    16 :       0.5000    0.5000    0.0000
  band No.  band energies     occupation
      1     -19.2749      1.00000
      2     -18.9744      1.00000
      3     -18.7041      1.00000
      4     -18.5186      1.00000
      5     -18.4994      1.00000
      6     -18.3184      1.00000
      7      -8.2327      1.00000
      8      -8.1375      1.00000
      9      -7.7162      1.00000
     10      -7.6953      1.00000
     11      -7.6864      1.00000
     12      -7.4780      1.00000
     13      -7.0738      1.00000
     14      -7.0083      1.00000
     15      -7.0008      1.00000
     16      -6.8461      1.00000
     17      -6.8389      1.00000
     18      -6.6458      1.00000
     19      -5.3806      1.00000
     20      -5.3679      1.00000
     21      -5.2048      1.00000
     22      -5.1424      1.00000
     23      -5.1124      1.00000
     24      -5.0045      1.00000
     25      -4.4772      1.00000
     26      -4.4446      1.00000
     27      -4.2422      1.00000
     28      -4.2262      1.00000
     29      -3.3745      1.00000
     30      -3.2461      1.00000
     31      -3.2381      1.00000
     32      -3.2027      1.00000
     33      -3.0512      1.00000
     34      -3.0153      1.00000
     35      -2.9656      1.00000
     36      -2.8943      1.00000
     37      -2.0134      1.00000
     38      -1.9928      1.00000
     39      -1.8638      1.00000
     40      -1.8252      1.00000
     41      -1.6202      1.00000
     42      -1.1931      1.00000
     43      -0.8401      1.00000
     44      -0.8009      1.00000
     45      -0.6277      0.99999
     46       0.3049      0.00000
     47       0.4758      0.00000
     48       0.6959      0.00000
     49       0.7962      0.00000
     50       1.2809      0.00000
     51       1.9512      0.00000
     52       3.2376      0.00000
     53       3.4312      0.00000
     54       3.6683      0.00000
     55       3.7825      0.00000
     56       4.2948      0.00000
     57       4.5626      0.00000
     58       4.8592      0.00000
     59       5.0344      0.00000
     60       5.2706      0.00000
[...]
     64       6.1413      0.00000
     65       6.8991      0.00000
     66       6.9941      0.00000
     67       7.0826      0.00000
     68       7.1207      0.00000
     69       7.1473      0.00000
     70       7.1787      0.00000
     71       7.4001      0.00000
     72       7.5052      0.00000
     73       7.5573      0.00000
     74       7.6482      0.00000
     75       7.9188      0.00000
     76       8.0651      0.00000
     77       8.1075      0.00000
     78       8.1724      0.00000

 soft charge-density along one line, spin component           1
         0         1         2         3         4         5         6         7         8         9
 total charge-density along one line

 soft charge-density along one line, spin component           2
         0         1         2         3         4         5         6         7         8         9
 total charge-density along one line

------------------------ aborting loop because EDIFF is reached ----------------------------------------

 total charge

# of ion       s       p       d       tot
    1        0.295   0.320   7.082   7.698
    2        0.298   0.329   7.092   7.719
    3        0.308   0.373   7.145   7.826
    4        0.308   0.373   7.145   7.826
    5        0.295   0.320   7.082   7.698
    6        0.298   0.329   7.092   7.719
    7        1.548   3.465   0.000   5.013
    8        1.549   3.416   0.000   4.964
    9        1.549   3.414   0.000   4.963
   10        1.549   3.416   0.000   4.964
   11        1.549   3.414   0.000   4.963
   12        1.548   3.465   0.000   5.013
tot         11.094  22.632  42.638  76.364

 magnetization (x)

[...]

         DFTD3 V3.0 Rev 1
 DF pbe
 parameters
 k1-k3        =   16.0000    1.3333   -4.0000
 Edisp (eV)   -2.10701

 E6    (eV) :    -1.2581
 E8    (eV) :    -0.8489
 % E8        : 40.29

  FORCE on cell =-STRESS in cart. coord.  units (eV):
  Direction    XX          YY          ZZ          XY          YZ          ZX
  Alpha Z    86.09645    86.09645    86.09645
  Ewald   44081.80628 44081.80628-48536.88142    -0.00000     0.00000     0.00000
  Hartree 45744.05988 45800.51578-44865.59987    -0.00004     0.00001    -0.00005
  E(xc)    -454.66572  -460.15645  -456.28203     0.00000    -0.00000     0.00000
  Local  -91444.99712-91628.31195 91785.62557     0.00009    -0.00002     0.00009
  n-local  -178.66239  -195.02609  -182.91343     0.15234    -0.00000     0.00000
  augment   960.99818  1053.77804   955.89927     0.00008     0.00010     0.00007
  Kinetic  1196.58478  1262.99141  1213.05255    -1.91520     0.00000     0.00000
  Fock        0.00000     0.00000     0.00000     0.00000     0.00000     0.00000
  vdW        -1.16337    -1.16337    -0.14172    -0.00000    -0.00000     0.00000
  Total      -9.94305     0.53011    -1.14464     0.00000    -0.00000    -0.00000
  in kB     -36.16937     1.92836    -4.16380     0.00000    -0.00000    -0.00000

 VOLUME and BASIS-vectors are now :
  energy-cutoff  :      600.00
  volume of cell :      440.44
      direct lattice vectors                 reciprocal lattice vectors
     4.260000000  0.000000000  0.000000000     0.234741784 -0.000000000 -0.000000000
     0.000000000  4.260000000  0.000000000     0.000000000  0.234741784 -0.000000000
     0.000000000  0.000000000 24.270000963     0.000000000  0.000000000  0.041203130

  length of vectors
     4.260000000  4.260000000 24.270000963     0.234741784  0.234741784  0.041203130

 FORCES acting on ions
    electron-ion (+dipol)            ewald-force                    non-local-force                 convergence-correction
   -.102E-02 0.122E-02 0.199E+04   0.120E-04 -.292E-02 -.198E+04   -.734E-16 -.734E-16 -.357E+01   0.697E-10 -.318E-08 0.823E-04
   -.101E-02 0.122E-02 -.197E+04   0.127E-04 -.295E-02 0.197E+04   0.702E-16 0.702E-16 0.341E+01   -.193E-10 -.314E-08 -.123E-03
   -.127E-02 0.133E-02 0.280E-01   -.421E-05 -.336E-02 0.107E+00   -.269E-17 -.270E-17 -.131E+00   -.412E-09 -.396E-08 -.540E-04
   -.947E-03 -.800E-03 0.280E-01   0.421E-05 0.336E-02 0.107E+00   -.270E-17 -.271E-17 -.131E+00   0.174E-09 0.401E-08 -.540E-04
   -.132E-02 -.674E-03 0.199E+04   -.120E-04 0.292E-02 -.198E+04   -.734E-16 -.734E-16 -.357E+01   -.449E-09 0.324E-08 0.823E-04
   -.131E-02 -.681E-03 -.197E+04   -.127E-04 0.295E-02 0.197E+04   0.702E-16 0.702E-16 0.341E+01   -.508E-09 0.325E-08 -.123E-03
   0.322E-02 -.341E-02 0.475E+01   -.749E-04 -.249E-02 -.538E+01   0.881E-17 0.887E-17 0.428E+00   0.467E-09 -.294E-08 -.347E-04
   0.172E-02 -.345E-02 0.133E+04   0.469E-04 -.228E-02 -.134E+04   0.115E-15 0.116E-15 0.561E+01   -.109E-09 -.232E-08 0.738E-04
   0.172E-02 -.345E-02 -.135E+04   0.466E-04 -.227E-02 0.136E+04   -.146E-15 -.146E-15 -.710E+01   0.145E-09 -.308E-08 -.878E-04
   0.320E-02 0.276E-02 0.133E+04   -.469E-04 0.228E-02 -.134E+04   0.115E-15 0.116E-15 0.561E+01   0.214E-09 0.231E-08 0.738E-04
   0.320E-02 0.276E-02 -.135E+04   -.466E-04 0.227E-02 0.136E+04   -.146E-15 -.146E-15 -.710E+01   0.632E-09 0.296E-08 -.878E-04
   0.168E-02 0.273E-02 0.475E+01   0.749E-04 0.249E-02 -.538E+01   0.879E-17 0.885E-17 0.428E+00   -.444E-10 0.289E-08 -.347E-04
   0.786E-02 -.453E-03 0.271E+01   0.807E-14 -.240E-13 -.398E-12   -.560E-16 -.558E-16 -.271E+01   0.160E-09 0.307E-10 -.286E-03

 POSITION                                       TOTAL-FORCE (eV/Angst)
      4.25761      4.25761     12.13000         0.000000      0.000000      0.419239
      4.25761      4.25761     16.34324         0.000000      0.000000      0.000065
      2.12761      4.25761     14.26000        -0.000000     -0.000000     -0.003357
      4.25761      2.12760     14.26000        -0.000000     -0.000000     -0.003357
      2.12761      2.12760     12.13000         0.000000      0.000000      0.419239
      2.12761      2.12760     16.34324        -0.000000      0.000000      0.000065
      4.25761      4.25761     14.26000        -0.000000     -0.000000     -0.197460
      2.12761      4.25761     12.13000        -0.000000     -0.000000     -0.217667
      2.12761      4.25761     16.39217        -0.000000      0.000000     -0.000821
      4.25761      2.12760     12.13000        -0.000000     -0.000000     -0.217667
      4.25761      2.12760     16.39217        -0.000000      0.000000     -0.000821
      2.12761      2.12760     14.26000        -0.000000     -0.000000     -0.197460
    total drift:                                0.007864     -0.000453     -0.000518

  FREE ENERGIE OF THE ION-ELECTRON SYSTEM (eV)
  free  energy   TOTEN  =       -72.08163454 eV

  energy  without entropy=      -72.08163440  energy(sigma->0) =      -72.08163447

 writing wavefunctions

 total charge

[...]

 magnetization (x)

# of ion       s       p       d       tot
    1        0.033   0.026   2.672   2.730
    2        0.031   0.027   2.670   2.728
    3        0.022   0.019   2.662   2.703
    4       -0.022  -0.019  -2.662  -2.703
    5       -0.033  -0.026  -2.672  -2.730
    6       -0.031  -0.027  -2.670  -2.728
    7        0.011   0.135   0.000   0.146
    8        0.005   0.093   0.000   0.098
    9        0.005   0.098   0.000   0.103
   10       -0.005  -0.093   0.000  -0.098
   11       -0.005  -0.098   0.000  -0.103
   12       -0.011  -0.135   0.000  -0.146
tot          0.000   0.000   0.000   0.000